124
10000000
1515569
1642872
1888108
321163
1044754
1738500
218755
749817
2158094
1009879
796167
8860
916629
2412726
1672103
946398
981277
1979374
450578
1010079
2143292
1517788
1340641
897054
1949693
695742
1399325
417595
611798
2121830
1550062
1965485
1288688
59931
38016
1064024
2163148
174963
1463767
1689656
545211
2480865
2329965
483386
1415397
359953
2424546
1222306
1937341
1758620
2369369
544838
1652380
1463765
1275103
1838077
1125205
542748
2317615
940
2299539
918841
406035
1904125
1540027
488821
887948
537927
846942
788191
412049
521069
225197
1349890
765197
1032933
882086
84852
2144667
2267720
1976478
1604973
1157801
682229
1150085
1572552
1329428
1164856
933630
1432069
1494360
98317
731454
651272
1633981
645354
2434946
1069688
1955036
2215842
114637
2318073
1777203
1628666
1648654
1218717
402701
1098578
1424487
677198
1110174
2481915
733499
2419923
592960
1035787
769259
1097058
784535
43846
783953
672639
2295119
530182
